22      4       
15      19      18      15      
0       0       0       0       0       4       2       3       4       5       
9       0       10      0       1       2       7       21      
5       9       8       8       1       1       6       
9       6       10      8       6       1       9       
1       6       0       9       0       1       19      
4       1       3       3       5       2       7       12      
6       0       6       0       0       1       8       
4       0       0       10      10      2       17      19      
3       0       0       3       1       2       10      19      
2       6       1       0       2       1       11      
6       5       0       3       9       1       12      
3       2       0       6       9       2       13      17      
2       3       0       0       8       1       14      
10      8       7       0       10      1       15      
5       2       5       5       2       1       16      
10      6       10      9       3       1       20      
2       1       0       2       6       1       18      
6       6       1       3       3       1       22      
1       1       2       10      5       1       22      
10      2       7       5       0       1       22      
7       2       3       0       1       1       22      
0       0       0       0       0       0       
